param N := 6;

param SPRICE:=

1 155000
2 120000
3 100000
4 70000
5 60000
6 100000;

param LSIZE :=

1  12000 
2  10000 
3  9000 
4  8000 
5  6000 
6  9000;

param ELEV :=

1  350
2  300
3  100
4  200
5  100
6  200; 